data;

# SNodes: 10, SEdges: 9

set SNodes := A B C D E F G H I J ;

param cpuSup := 
A 100
B 100
C 100
D 100
E 100
F 100
G 100
H 100
I 100
J 100
;

param secSupNode := 
A 0
B 0
C 0
D 0
E 0
F 0
G 0
H 0
I 0
J 0
;

param bwSup:
  A B C D E F G H I J :=
A 0 1000 0 1000 1000 0 0 1000 1000 1000 
B 1000 0 1000 0 0 1000 1000 0 0 0 
C 0 1000 0 0 0 0 0 0 0 0 
D 1000 0 0 0 0 0 0 0 0 0 
E 1000 0 0 0 0 0 0 0 0 0 
F 0 1000 0 0 0 0 0 0 0 0 
G 0 1000 0 0 0 0 0 0 0 0 
H 1000 0 0 0 0 0 0 0 0 0 
I 1000 0 0 0 0 0 0 0 0 0 
J 1000 0 0 0 0 0 0 0 0 0 
;

param secSupEdge :
  A B C D E F G H I J :=
A 0 0 0 0 0 0 0 0 0 0 
B 0 0 0 0 0 0 0 0 0 0 
C 0 0 0 0 0 0 0 0 0 0 
D 0 0 0 0 0 0 0 0 0 0 
E 0 0 0 0 0 0 0 0 0 0 
F 0 0 0 0 0 0 0 0 0 0 
G 0 0 0 0 0 0 0 0 0 0 
H 0 0 0 0 0 0 0 0 0 0 
I 0 0 0 0 0 0 0 0 0 0 
J 0 0 0 0 0 0 0 0 0 0 
;

param weight :
  A B C D E F G H I J :=
A 0 1 0 1 1 0 0 1 1 1 
B 1 0 1 0 0 1 1 0 0 0 
C 0 1 0 0 0 0 0 0 0 0 
D 1 0 0 0 0 0 0 0 0 0 
E 1 0 0 0 0 0 0 0 0 0 
F 0 1 0 0 0 0 0 0 0 0 
G 0 1 0 0 0 0 0 0 0 0 
H 1 0 0 0 0 0 0 0 0 0 
I 1 0 0 0 0 0 0 0 0 0 
J 1 0 0 0 0 0 0 0 0 0 
;

set Clouds := 1 2 ;

param doesItBelong := 
1 A 1
1 B 0
1 C 0
1 D 1
1 E 1
1 F 0
1 G 0
1 H 1
1 I 1
1 J 1
2 A 0
2 B 1
2 C 1
2 D 0
2 E 0
2 F 1
2 G 1
2 H 0
2 I 0
2 J 0
;

param cloudSecSup := 
A 0
D 0
E 0
H 0
I 0
J 0
B 1
C 1
F 1
G 1
;

# VNodes: 2, VEdges: 1

set VNodes := 1 2 ;

set VEdges := (1,2);

param cpuDem := 
1 100
2 100
;

param secDemNode := 
1 0
2 0
;

param bwDem := 
1 2 1000
;

param secDemEdge := 
1 2 0
;

param cloudSecDem := 
1 0
2 0
;

param wantBackup := 0;

param bvNodeLocalization := 
1 0
2 0
;

end;
